
  22   10
  10   10   10   10   10   10   10   10   10   10

   0   0   0   0   0   0   0   0   0   0   0   1 2 
  10  10  10  10  10  10  10  10  10  10  10   1 3 
   4  10  10  10  10  10  10  10  10  10  10   3 8 5 4 
  10  10  10  10  10  10  10  10  10  10  10   1 6 
  10  10  10  10  10  10  10  10  10  10  10   1 6 
  10  10  10  10  10  10  10  10  10  10  10   2 9 7 
   4  10  10  10  10  10  10  10  10  10  10   4 21 14 11 10 
   5  10  10  10  10  10  10  10  10  10  10   2 10 9 
   2  10  10  10  10  10  10  10  10  10  10   3 21 20 15 
  10  10  10  10  10  10  10  10  10  10  10   1 12 
   6  10  10  10  10  10  10  10  10  10  10   1 13 
   8  10  10  10  10  10  10  10  10  10  10   2 20 15 
   5  10  10  10  10  10  10  10  10  10  10   2 20 15 
  10  10  10  10  10  10  10  10  10  10  10   2 20 15 
  10  10  10  10  10  10  10  10  10  10  10   2 19 16 
   1  10  10  10  10  10  10  10  10  10  10   2 18 17 
   3  10  10  10  10  10  10  10  10  10  10   1 22
   8  10  10  10  10  10  10  10  10  10  10   1 22
   5  10  10  10  10  10  10  10  10  10  10   1 22
   8  10  10  10  10  10  10  10  10  10  10   1 22
   8  10  10  10  10  10  10  10  10  10  10   1 22
   0   0   0   0   0   0   0   0   0   0   0   0 
